NAME: star_n8
TYPE: TSP
DIMENSION: 8
EDGE_WEIGHT_TYPE: EUC_2D
NODE_COORD_SECTION
1 0.000000 0.000000
2 100.000000 0.000000
3 62.348980 78.183148
4 -22.252093 97.492791
5 -90.096887 43.388374
6 -90.096887 -43.388374
7 -22.252093 -97.492791
8 62.348980 -78.183148
EOF
